70
150
105	5
104	3
103	1
102	2
101	1
100	7
99	3
98	3
97	1
96	3
95	3
94	4
93	2
92	2
91	5
90	5
89	1
88	4
87	5
86	2
85	2
83	7
82	5
81	2
80	4
79	2
78	3
77	2
76	3
75	2
74	2
73	2
72	1
70	7
69	2
68	4
67	2
66	3
64	5
63	3
62	2
61	2
59	1
58	1
57	9
56	2
54	1
53	3
52	3
51	3
50	1
49	3
48	2
47	2
46	2
45	1
44	3
43	3
42	5
41	1
40	2
38	4
37	1
36	2
35	3
34	2
33	5
32	1
31	1
30	4
